
Gurobi 8.1.0 (linux64) logging started Fri Jun  7 21:57:00 2019

Academic license - for non-commercial use only

Gurobi Optimizer version 8.1.0 build v8.1.0rc1 (linux64)
Copyright (c) 2018, Gurobi Optimization, LLC

Warning: unknown variable 'y(1,1,1)' in bounds section
Warning: unknown variable 'y(1,1,2)' in bounds section
Warning: unknown variable 'y(1,1,3)' in bounds section
Warning: unknown variable 'y(2,2,1)' in bounds section
Warning: unknown variable 'y(2,2,2)' in bounds section
Warning: unknown variable 'y(2,2,3)' in bounds section
Warning: unknown variable 'y(3,3,1)' in bounds section
Warning: unknown variable 'y(3,3,2)' in bounds section
Warning: unknown variable 'y(3,3,3)' in bounds section
Read LP format model from file model.lp
Reading time = 0.02 seconds
OBJROW: 45 rows, 37 columns, 126 nonzeros
Optimize a model with 45 rows, 37 columns and 126 nonzeros
Variable types: 0 continuous, 37 integer (0 binary)
Coefficient statistics:
  Matrix range     [1e+00, 3e+01]
  Objective range  [1e+00, 1e+00]
  Bounds range     [1e+00, 1e+00]
  RHS range        [1e+00, 3e+01]
Found heuristic solution: objective 22.0000000
Presolve removed 0 rows and 9 columns
Presolve time: 0.00s
Presolved: 45 rows, 28 columns, 126 nonzeros
Variable types: 0 continuous, 28 integer (18 binary)

Root relaxation: objective 1.500000e+01, 14 iterations, 0.00 seconds

    Nodes    |    Current Node    |     Objective Bounds      |     Work
 Expl Unexpl |  Obj  Depth IntInf | Incumbent    BestBd   Gap | It/Node Time

     0     0   15.00000    0    4   22.00000   15.00000  31.8%     -    0s
H    0     0                      20.0000000   15.00000  25.0%     -    0s
     0     0   16.00000    0    5   20.00000   16.00000  20.0%     -    0s
     0     0   16.00000    0    7   20.00000   16.00000  20.0%     -    0s
     0     0   16.75000    0   14   20.00000   16.75000  16.2%     -    0s
     0     0 infeasible    0        20.00000   20.00000  0.00%     -    0s

Explored 1 nodes (83 simplex iterations) in 0.05 seconds
Thread count was 4 (of 4 available processors)

Solution count 2: 20 22 

Optimal solution found (tolerance 1.00e-04)
Best objective 2.000000000000e+01, best bound 2.000000000000e+01, gap 0.0000%

Gurobi 8.1.0 (linux64) logging started Fri Jun  7 21:57:08 2019

Academic license - for non-commercial use only

Gurobi Optimizer version 8.1.0 build v8.1.0rc1 (linux64)
Copyright (c) 2018, Gurobi Optimization, LLC

Warning: unknown variable 'y(1,1,1)' in bounds section
Warning: unknown variable 'y(1,1,2)' in bounds section
Warning: unknown variable 'y(1,1,3)' in bounds section
Warning: unknown variable 'y(2,2,1)' in bounds section
Warning: unknown variable 'y(2,2,2)' in bounds section
Warning: unknown variable 'y(2,2,3)' in bounds section
Warning: unknown variable 'y(3,3,1)' in bounds section
Warning: unknown variable 'y(3,3,2)' in bounds section
Warning: unknown variable 'y(3,3,3)' in bounds section
Read LP format model from file model.lp
Reading time = 0.02 seconds
OBJROW: 45 rows, 37 columns, 126 nonzeros
Optimize a model with 45 rows, 37 columns and 126 nonzeros
Variable types: 0 continuous, 37 integer (0 binary)
Coefficient statistics:
  Matrix range     [1e+00, 3e+01]
  Objective range  [1e+00, 1e+00]
  Bounds range     [1e+00, 1e+00]
  RHS range        [1e+00, 3e+01]
Found heuristic solution: objective 22.0000000
Presolve removed 0 rows and 9 columns
Presolve time: 0.00s
Presolved: 45 rows, 28 columns, 126 nonzeros
Variable types: 0 continuous, 28 integer (18 binary)

Root relaxation: objective 1.500000e+01, 14 iterations, 0.00 seconds

    Nodes    |    Current Node    |     Objective Bounds      |     Work
 Expl Unexpl |  Obj  Depth IntInf | Incumbent    BestBd   Gap | It/Node Time

     0     0   15.00000    0    4   22.00000   15.00000  31.8%     -    0s
H    0     0                      20.0000000   15.00000  25.0%     -    0s
     0     0   16.00000    0    5   20.00000   16.00000  20.0%     -    0s
     0     0   16.00000    0    7   20.00000   16.00000  20.0%     -    0s
     0     0   16.75000    0   14   20.00000   16.75000  16.2%     -    0s
     0     0 infeasible    0        20.00000   20.00000  0.00%     -    0s

Explored 1 nodes (83 simplex iterations) in 0.05 seconds
Thread count was 4 (of 4 available processors)

Solution count 2: 20 22 

Optimal solution found (tolerance 1.00e-04)
Best objective 2.000000000000e+01, best bound 2.000000000000e+01, gap 0.0000%

Wrote result file 'sol.sol'

